p cnf 50 1200 
1 45 42 0
1 1 -6 0
1 35 14 0
1 19 -43 0
1 -49 -44 0
1 -33 -42 0
1 1 13 0
1 -14 25 0
1 16 45 0
1 50 -9 0
1 -22 -15 0
1 7 50 0
1 43 -45 0
1 37 -2 0
1 14 -26 0
1 -50 33 0
1 -28 -43 0
1 2 32 0
1 46 8 0
1 8 29 0
1 -23 9 0
1 -10 46 0
1 21 1 0
1 -34 35 0
1 -28 -15 0
1 47 -48 0
1 -6 14 0
1 42 1 0
1 10 39 0
1 -35 19 0
1 19 43 0
1 28 10 0
1 -24 50 0
1 48 35 0
1 49 -6 0
1 7 29 0
1 -18 28 0
1 47 28 0
1 20 -32 0
1 41 30 0
1 -30 -36 0
1 -20 47 0
1 2 46 0
1 25 -13 0
1 -41 -9 0
1 36 1 0
1 33 19 0
1 -49 -4 0
1 39 22 0
1 -18 35 0
1 -31 35 0
1 -48 -1 0
1 9 -41 0
1 -42 26 0
1 -45 -2 0
1 5 -34 0
1 5 27 0
1 -12 -29 0
1 -13 20 0
1 -20 -43 0
1 33 23 0
1 -48 -23 0
1 -24 -44 0
1 27 -9 0
1 35 -23 0
1 -1 46 0
1 15 -34 0
1 26 23 0
1 -45 -37 0
1 -9 -30 0
1 23 -22 0
1 -30 32 0
1 4 34 0
1 29 -48 0
1 -31 44 0
1 16 42 0
1 29 -47 0
1 27 -38 0
1 -10 -30 0
1 11 28 0
1 11 -14 0
1 -11 -39 0
1 -32 -12 0
1 3 -13 0
1 -10 -18 0
1 38 35 0
1 -32 46 0
1 49 43 0
1 12 9 0
1 -42 15 0
1 13 29 0
1 -35 -37 0
1 -5 -20 0
1 5 -48 0
1 -43 -37 0
1 29 -15 0
1 -24 25 0
1 40 22 0
1 -50 -25 0
1 -12 10 0
1 30 -21 0
1 18 20 0
1 -15 -50 0
1 2 -23 0
1 13 -18 0
1 -36 17 0
1 43 20 0
1 -49 38 0
1 -46 17 0
1 37 45 0
1 -45 -49 0
1 22 -32 0
1 50 -40 0
1 -7 -3 0
1 22 17 0
1 -4 -35 0
1 1 -24 0
1 -19 29 0
1 28 -17 0
1 -49 -34 0
1 -23 -1 0
1 -3 28 0
1 -44 -30 0
1 -14 32 0
1 5 9 0
1 -38 39 0
1 6 46 0
1 30 48 0
1 -48 34 0
1 11 9 0
1 39 19 0
1 1 48 0
1 -7 -18 0
1 7 15 0
1 11 -25 0
1 -22 16 0
1 50 22 0
1 31 45 0
1 13 17 0
1 14 38 0
1 6 46 0
1 11 24 0
1 48 38 0
1 -4 2 0
1 24 8 0
1 3 28 0
1 44 -29 0
1 -46 -28 0
1 43 49 0
1 21 22 0
1 32 -34 0
1 22 -15 0
1 -28 10 0
1 -32 47 0
1 25 8 0
1 35 -43 0
1 -41 14 0
1 36 8 0
1 -41 32 0
1 -47 6 0
1 -15 -23 0
1 19 -29 0
1 36 28 0
1 -20 26 0
1 40 41 0
1 -49 -43 0
1 25 42 0
1 -47 42 0
1 14 -24 0
1 -3 -28 0
1 6 40 0
1 -15 7 0
1 -48 -8 0
1 -1 20 0
1 -11 35 0
1 26 -39 0
1 13 25 0
1 3 47 0
1 -37 12 0
1 18 19 0
1 26 -34 0
1 4 45 0
1 29 45 0
1 -34 -40 0
1 15 14 0
1 -11 -13 0
1 -24 -9 0
1 27 3 0
1 -37 -17 0
1 12 -29 0
1 -24 26 0
1 16 -37 0
1 -1 12 0
1 25 -24 0
1 -33 6 0
1 9 -47 0
1 -14 41 0
1 19 -40 0
1 -16 -8 0
1 44 -1 0
1 13 -10 0
1 -34 14 0
1 -20 -26 0
1 22 -37 0
1 28 -9 0
1 -48 23 0
1 -30 36 0
1 36 -6 0
1 -16 -24 0
1 37 21 0
1 -46 41 0
1 28 8 0
1 17 11 0
1 -33 38 0
1 -24 21 0
1 27 -5 0
1 -28 43 0
1 13 6 0
1 46 5 0
1 -13 -27 0
1 -37 27 0
1 -15 -20 0
1 -41 18 0
1 22 -6 0
1 48 49 0
1 5 -34 0
1 38 44 0
1 -20 49 0
1 26 -23 0
1 -43 -6 0
1 -24 -26 0
1 -32 -9 0
1 8 -40 0
1 -8 11 0
1 34 -29 0
1 9 -26 0
1 50 48 0
1 -27 6 0
1 -6 24 0
1 17 13 0
1 2 33 0
1 44 -43 0
1 22 -31 0
1 6 17 0
1 14 -34 0
1 -40 -38 0
1 11 -25 0
1 38 -31 0
1 -14 17 0
1 -9 -34 0
1 -42 11 0
1 21 50 0
1 -10 -12 0
1 4 -39 0
1 49 -36 0
1 -38 5 0
1 3 50 0
1 33 43 0
1 -3 46 0
1 -45 5 0
1 17 21 0
1 -10 9 0
1 -44 -15 0
1 -19 29 0
1 -29 47 0
1 -40 -34 0
1 30 18 0
1 -23 -43 0
1 14 28 0
1 -36 -7 0
1 22 -17 0
1 46 45 0
1 -41 -46 0
1 30 20 0
1 37 -32 0
1 -9 -48 0
1 6 15 0
1 -45 1 0
1 11 25 0
1 -37 -30 0
1 14 -26 0
1 48 -20 0
1 2 29 0
1 -26 -6 0
1 -21 19 0
1 -20 -28 0
1 -3 -32 0
1 11 31 0
1 7 31 0
1 -1 26 0
1 4 -2 0
1 7 -9 0
1 -28 -5 0
1 -33 -18 0
1 50 12 0
1 -43 34 0
1 40 4 0
1 41 -27 0
1 -39 -49 0
1 -10 26 0
1 -18 -22 0
1 -49 32 0
1 5 -45 0
1 29 3 0
1 -6 -46 0
1 -23 3 0
1 1 38 0
1 13 -34 0
1 6 21 0
1 3 1 0
1 46 18 0
1 -20 -26 0
1 22 -26 0
1 29 -11 0
1 -48 13 0
1 -47 13 0
1 34 -7 0
1 -7 20 0
1 -37 47 0
1 -22 -19 0
1 -45 5 0
1 15 41 0
1 4 -41 0
1 4 -13 0
1 19 -6 0
1 -25 15 0
1 11 -4 0
1 -23 1 0
1 -5 12 0
1 -2 42 0
1 33 -2 0
1 15 -5 0
1 11 -46 0
1 -11 37 0
1 41 16 0
1 -16 29 0
1 -41 -19 0
1 -10 -20 0
1 -22 -2 0
1 7 2 0
1 47 27 0
1 -14 49 0
1 14 -32 0
1 -10 -47 0
1 -15 39 0
1 8 -39 0
1 41 -45 0
1 46 -33 0
1 -10 16 0
1 -14 -28 0
1 9 45 0
1 41 6 0
1 -45 10 0
1 -49 -48 0
1 -42 -46 0
1 -29 -49 0
1 14 -31 0
1 8 39 0
1 -33 12 0
1 -18 2 0
1 11 9 0
1 -6 -45 0
1 -41 35 0
1 33 -17 0
1 47 17 0
1 6 -29 0
1 41 4 0
1 5 40 0
1 -49 33 0
1 28 24 0
1 -8 -38 0
1 -4 42 0
1 9 12 0
1 41 -24 0
1 -28 -12 0
1 -1 -8 0
1 41 24 0
1 -48 5 0
1 -43 -22 0
1 -14 34 0
1 -46 -1 0
1 25 37 0
1 -48 -6 0
1 -13 33 0
1 6 1 0
1 6 -8 0
1 -30 -5 0
1 39 -40 0
1 40 50 0
1 36 -37 0
1 -43 50 0
1 32 -30 0
1 -31 -42 0
1 50 33 0
1 -27 10 0
1 24 27 0
1 47 -19 0
1 -35 -42 0
1 24 31 0
1 -40 3 0
1 44 -19 0
1 -2 -25 0
1 -34 42 0
1 -19 49 0
1 -17 39 0
1 -30 25 0
1 6 -1 0
1 4 -39 0
1 -7 22 0
1 -47 -40 0
1 -31 -29 0
1 27 -17 0
1 -5 -14 0
1 -38 -30 0
1 -31 -42 0
1 -31 -3 0
1 -25 22 0
1 -11 -32 0
1 -11 -37 0
1 -4 6 0
1 -19 27 0
1 -7 -29 0
1 21 38 0
1 -41 1 0
1 -23 -33 0
1 15 35 0
1 22 16 0
1 -21 -44 0
1 -20 -25 0
1 3 46 0
1 33 32 0
1 -33 11 0
1 -44 23 0
1 -8 -13 0
1 28 -45 0
1 -38 36 0
1 -10 35 0
1 -30 45 0
1 -26 9 0
1 20 23 0
1 45 1 0
1 -13 -4 0
1 -49 -34 0
1 -19 -29 0
1 -13 -27 0
1 21 -26 0
1 34 40 0
1 12 18 0
1 18 -37 0
1 41 -38 0
1 -21 -11 0
1 39 20 0
1 -46 8 0
1 33 48 0
1 37 -17 0
1 34 35 0
1 -21 12 0
1 50 2 0
1 13 27 0
1 46 -26 0
1 34 45 0
1 -42 -21 0
1 -37 1 0
1 35 31 0
1 42 -3 0
1 5 18 0
1 44 -20 0
1 -46 -20 0
1 -15 40 0
1 -10 -26 0
1 27 12 0
1 42 -39 0
1 42 -34 0
1 1 -36 0
1 -6 32 0
1 -2 15 0
1 4 24 0
1 50 -8 0
1 -19 27 0
1 -15 4 0
1 37 -18 0
1 -4 16 0
1 48 -14 0
1 29 -39 0
1 -13 39 0
1 -46 5 0
1 -31 -26 0
1 29 19 0
1 37 -4 0
1 -19 33 0
1 47 7 0
1 46 31 0
1 19 2 0
1 -6 -10 0
1 -35 4 0
1 -23 32 0
1 -35 31 0
1 13 46 0
1 -3 -35 0
1 15 -40 0
1 -41 -27 0
1 -36 25 0
1 -29 13 0
1 44 -13 0
1 -43 8 0
1 3 2 0
1 36 -47 0
1 -36 -10 0
1 37 29 0
1 -4 -6 0
1 -18 27 0
1 -40 -43 0
1 -50 22 0
1 24 1 0
1 48 -12 0
1 21 41 0
1 -20 33 0
1 39 22 0
1 49 -39 0
1 31 -8 0
1 -30 8 0
1 8 42 0
1 -3 20 0
1 -11 -48 0
1 31 9 0
1 30 -9 0
1 48 -42 0
1 50 -36 0
1 -43 42 0
1 34 -44 0
1 14 44 0
1 42 40 0
1 -48 -9 0
1 17 14 0
1 -6 22 0
1 -7 -1 0
1 42 -18 0
1 12 -6 0
1 -50 -21 0
1 10 5 0
1 -13 -2 0
1 -16 42 0
1 -13 35 0
1 35 -12 0
1 30 -20 0
1 25 13 0
1 34 -16 0
1 20 -26 0
1 27 -36 0
1 27 -5 0
1 39 40 0
1 -2 -29 0
1 48 2 0
1 -15 -38 0
1 -4 10 0
1 35 41 0
1 26 17 0
1 -21 17 0
1 -7 2 0
1 -30 -32 0
1 -33 -12 0
1 -50 44 0
1 3 -35 0
1 -25 30 0
1 46 2 0
1 18 46 0
1 -47 -7 0
1 39 22 0
1 33 -50 0
1 -44 -13 0
1 -47 9 0
1 39 -33 0
1 34 25 0
1 -20 25 0
1 -32 8 0
1 -30 43 0
1 -43 -11 0
1 -24 28 0
1 -36 16 0
1 48 -13 0
1 -38 8 0
1 33 10 0
1 -18 -13 0
1 6 -28 0
1 -38 3 0
1 -30 16 0
1 -31 -23 0
1 36 48 0
1 -6 -43 0
1 2 3 0
1 39 16 0
1 24 -18 0
1 2 15 0
1 -46 21 0
1 10 25 0
1 35 -27 0
1 -7 1 0
1 4 -48 0
1 14 -43 0
1 10 13 0
1 19 -28 0
1 -25 -39 0
1 -43 6 0
1 -19 11 0
1 40 -34 0
1 7 -13 0
1 20 -38 0
1 1 20 0
1 47 24 0
1 13 7 0
1 13 -3 0
1 -14 1 0
1 -35 -21 0
1 -33 41 0
1 -28 -48 0
1 -17 36 0
1 -9 5 0
1 -11 3 0
1 5 2 0
1 2 -3 0
1 -24 11 0
1 2 -16 0
1 14 -40 0
1 -26 -4 0
1 9 25 0
1 -27 -32 0
1 -34 -47 0
1 49 21 0
1 -31 -49 0
1 15 -37 0
1 27 18 0
1 -22 -49 0
1 -23 -41 0
1 -23 42 0
1 -38 -30 0
1 1 -12 0
1 11 37 0
1 -24 -2 0
1 8 1 0
1 -37 -43 0
1 -42 -28 0
1 9 -6 0
1 -47 8 0
1 17 20 0
1 -33 43 0
1 -44 27 0
1 28 10 0
1 -2 -37 0
1 -15 41 0
1 47 -48 0
1 6 1 0
1 -20 19 0
1 11 4 0
1 30 4 0
1 13 14 0
1 50 12 0
1 -3 -35 0
1 -33 -49 0
1 49 42 0
1 10 37 0
1 40 27 0
1 -31 -26 0
1 -47 9 0
1 17 7 0
1 -44 -10 0
1 -1 -22 0
1 32 8 0
1 28 22 0
1 -47 -27 0
1 3 -29 0
1 38 13 0
1 20 19 0
1 28 -38 0
1 9 -45 0
1 3 -22 0
1 -43 -17 0
1 44 -20 0
1 -49 -36 0
1 -49 4 0
1 -22 -44 0
1 -31 -36 0
1 -31 -46 0
1 18 38 0
1 -4 -49 0
1 -19 15 0
1 1 -39 0
1 43 42 0
1 35 48 0
1 34 40 0
1 -36 33 0
1 20 11 0
1 10 -12 0
1 -27 -14 0
1 -3 -47 0
1 38 42 0
1 -39 22 0
1 -11 -41 0
1 -24 -34 0
1 45 11 0
1 -22 -38 0
1 2 25 0
1 -21 50 0
1 -41 -8 0
1 30 -19 0
1 -10 -39 0
1 -22 34 0
1 45 43 0
1 30 -1 0
1 -25 -38 0
1 38 -34 0
1 42 36 0
1 5 11 0
1 -49 46 0
1 -30 22 0
1 -14 -7 0
1 7 -4 0
1 -42 -9 0
1 42 -33 0
1 18 16 0
1 -26 14 0
1 -10 -32 0
1 3 33 0
1 39 -3 0
1 -6 -34 0
1 -43 -5 0
1 37 33 0
1 -48 21 0
1 -34 -13 0
1 -45 -43 0
1 25 45 0
1 47 23 0
1 -7 -37 0
1 -42 -25 0
1 -8 50 0
1 -21 10 0
1 -23 27 0
1 20 -29 0
1 24 27 0
1 50 18 0
1 4 -22 0
1 47 38 0
1 38 6 0
1 16 -39 0
1 16 -9 0
1 -38 18 0
1 -44 -39 0
1 -6 3 0
1 24 4 0
1 41 -29 0
1 -34 35 0
1 -47 38 0
1 -42 23 0
1 3 -5 0
1 -35 -45 0
1 43 -6 0
1 -11 -32 0
1 6 -14 0
1 49 -23 0
1 10 49 0
1 21 44 0
1 49 -11 0
1 5 -10 0
1 -16 -32 0
1 13 30 0
1 44 -37 0
1 -10 18 0
1 16 -38 0
1 32 -28 0
1 38 -23 0
1 -33 40 0
1 -34 24 0
1 38 46 0
1 -3 48 0
1 -35 3 0
1 -22 -3 0
1 32 -37 0
1 -29 36 0
1 33 41 0
1 -18 15 0
1 21 19 0
1 3 35 0
1 -21 -25 0
1 28 25 0
1 11 -25 0
1 10 -31 0
1 -21 -10 0
1 25 -43 0
1 12 18 0
1 2 18 0
1 42 46 0
1 -20 -35 0
1 9 33 0
1 13 -29 0
1 38 9 0
1 1 25 0
1 -42 -22 0
1 39 -45 0
1 -40 29 0
1 -14 30 0
1 -12 10 0
1 38 -1 0
1 -9 32 0
1 7 -45 0
1 -17 46 0
1 -40 -7 0
1 -36 38 0
1 -28 -22 0
1 12 1 0
1 10 -50 0
1 -37 -31 0
1 -2 -45 0
1 -36 -4 0
1 -39 16 0
1 -4 -28 0
1 49 15 0
1 15 42 0
1 42 -45 0
1 26 -13 0
1 7 -8 0
1 -11 -10 0
1 25 -14 0
1 42 -12 0
1 26 -27 0
1 18 24 0
1 -19 -31 0
1 43 -47 0
1 -5 43 0
1 3 -28 0
1 42 -39 0
1 50 14 0
1 41 24 0
1 48 30 0
1 10 5 0
1 2 31 0
1 23 43 0
1 21 37 0
1 -25 7 0
1 -21 18 0
1 42 -13 0
1 43 36 0
1 40 -16 0
1 -46 6 0
1 -49 19 0
1 -5 -46 0
1 3 26 0
1 -43 -1 0
1 14 3 0
1 38 -29 0
1 45 -13 0
1 19 16 0
1 -34 -3 0
1 48 -17 0
1 42 -19 0
1 20 -7 0
1 -9 -41 0
1 20 47 0
1 9 -43 0
1 -9 -14 0
1 -16 29 0
1 45 -47 0
1 16 -37 0
1 43 38 0
1 -29 -5 0
1 1 21 0
1 -13 17 0
1 31 -29 0
1 8 43 0
1 -39 24 0
1 -11 8 0
1 45 5 0
1 9 50 0
1 20 -34 0
1 1 -3 0
1 -32 -17 0
1 -10 -37 0
1 11 28 0
1 35 -40 0
1 45 26 0
1 26 -24 0
1 -7 30 0
1 -33 32 0
1 49 14 0
1 1 43 0
1 -21 8 0
1 -48 -5 0
1 -31 37 0
1 10 6 0
1 35 29 0
1 -11 10 0
1 24 33 0
1 -26 -22 0
1 29 -18 0
1 23 35 0
1 22 -12 0
1 -18 10 0
1 39 -21 0
1 31 50 0
1 -32 24 0
1 45 15 0
1 -32 3 0
1 38 17 0
1 -28 -16 0
1 -26 39 0
1 10 -16 0
1 -16 -20 0
1 43 -24 0
1 38 7 0
1 10 -9 0
1 25 31 0
1 -46 48 0
1 -37 -44 0
1 -10 47 0
1 16 31 0
1 -5 -26 0
1 33 -5 0
1 -13 -36 0
1 -16 46 0
1 -44 -37 0
1 -30 -16 0
1 13 -12 0
1 -43 -36 0
1 -12 -32 0
1 -37 -1 0
1 -36 25 0
1 21 26 0
1 -12 -44 0
1 -9 21 0
1 -33 45 0
1 30 -36 0
1 -17 11 0
1 12 -21 0
1 -46 39 0
1 -14 -10 0
1 3 25 0
1 -45 -48 0
1 42 32 0
1 18 -23 0
1 -34 -46 0
1 -17 40 0
1 -28 -39 0
1 48 8 0
1 32 -35 0
1 32 45 0
1 -27 -4 0
1 -27 6 0
1 2 15 0
1 -5 -45 0
1 34 -6 0
1 -14 -41 0
1 25 44 0
1 -38 24 0
1 27 24 0
1 29 -35 0
1 -50 16 0
1 -10 -27 0
1 33 -9 0
1 -50 6 0
1 -49 -11 0
1 34 11 0
1 34 8 0
1 -42 -25 0
1 -40 46 0
1 -31 -42 0
1 -16 43 0
1 33 -14 0
1 -44 5 0
1 -5 38 0
1 1 50 0
1 41 -46 0
1 -42 14 0
1 6 43 0
1 -36 1 0
1 14 10 0
1 15 39 0
1 -27 -49 0
1 48 -36 0
1 32 16 0
1 -29 -14 0
1 -7 5 0
1 45 10 0
1 21 27 0
1 -39 36 0
1 13 34 0
1 -23 -38 0
1 11 8 0
1 42 -11 0
1 -2 18 0
1 -38 45 0
1 13 41 0
1 26 -39 0
1 23 -28 0
1 -15 -30 0
1 -38 -41 0
1 1 42 0
1 10 -14 0
1 8 44 0
1 34 15 0
1 -4 -43 0
1 20 -48 0
1 28 8 0
1 -48 -41 0
1 -33 -17 0
1 -30 -12 0
1 5 -1 0
1 -16 29 0
1 -21 -43 0
1 -41 16 0
1 -23 36 0
1 27 -18 0
1 17 -1 0
1 -40 -10 0
1 17 -20 0
1 17 25 0
1 -19 -7 0
1 33 19 0
1 -2 -28 0
1 45 3 0
1 -4 -45 0
1 -5 21 0
1 41 17 0
1 -33 -16 0
1 16 -18 0
1 -25 40 0
1 -34 -13 0
1 -34 -8 0
1 -46 33 0
1 17 4 0
1 20 14 0
1 -29 -5 0
1 -23 -13 0
1 -2 -12 0
1 25 46 0
1 -3 -12 0
1 44 19 0
1 23 -22 0
1 -36 39 0
1 44 34 0
1 46 -36 0
1 -48 12 0
1 -7 5 0
1 16 17 0
1 36 23 0
1 -45 -38 0
1 -26 42 0
1 -26 4 0
1 40 -47 0
1 8 2 0
1 6 40 0
1 -6 -33 0
1 -6 1 0
1 -38 50 0
1 -42 26 0
1 -30 17 0
1 13 6 0
1 -7 14 0
1 -3 11 0
1 43 -15 0
1 -15 1 0
1 50 -29 0
1 5 -49 0
1 15 -45 0
1 -50 7 0
1 21 34 0
1 -44 -3 0
1 -17 -34 0
1 -34 -33 0
1 12 1 0
1 -49 31 0
1 -25 1 0
1 -7 -39 0
1 23 1 0
1 3 34 0
1 17 -38 0
1 -20 -37 0
1 -37 -7 0
1 -37 45 0
1 -45 40 0
1 -29 18 0
1 18 31 0
1 -14 -21 0
1 -8 -43 0
1 29 13 0
1 19 4 0
1 49 -50 0
1 -40 4 0
1 22 -25 0
1 5 36 0
1 -6 1 0
1 -43 28 0
1 -40 48 0
1 2 -36 0
1 -36 32 0
1 -36 39 0
1 -14 11 0
1 -47 7 0
1 7 -35 0
1 12 5 0
1 3 5 0
1 41 -25 0
1 6 -47 0
1 -36 -43 0
1 3 -45 0
1 1 4 0
1 38 -17 0
1 21 25 0
1 -29 12 0
1 -36 -30 0
1 -27 45 0
1 37 -31 0
1 -26 -28 0
1 -32 40 0
1 6 -39 0
1 -14 -20 0
1 31 26 0
1 6 -5 0
1 -50 -40 0
1 -21 -5 0
1 33 15 0
1 -4 6 0
1 -45 1 0
1 -20 36 0
1 11 10 0
1 -15 23 0
1 12 -42 0
1 -47 -26 0
1 -40 -1 0
1 7 26 0
1 27 -39 0
1 -24 -8 0
1 18 -13 0
1 -35 -49 0
1 -41 -47 0
1 23 8 0
1 9 11 0
1 36 10 0
1 48 25 0
1 33 -5 0
1 -17 7 0
1 -5 -29 0
1 -25 -27 0
1 35 -50 0
1 10 -16 0
1 25 24 0
1 -48 -17 0
1 -22 -50 0
1 -6 11 0
1 39 38 0
1 15 -39 0
1 -39 -21 0
1 -37 49 0
1 -22 1 0
1 -17 -29 0
1 -28 -27 0
1 -38 -16 0
1 -3 50 0
1 39 -1 0
1 22 7 0
1 6 -17 0
1 -18 -5 0
1 33 43 0
1 -20 49 0
1 -14 38 0
1 -38 -23 0
1 23 -50 0
1 7 26 0
1 -42 23 0
1 -28 33 0
1 26 -17 0
1 -15 2 0
1 -34 46 0
1 -29 -15 0
1 -16 -23 0
1 -25 -46 0
1 34 42 0
1 -36 35 0
1 5 36 0
1 37 46 0
1 -41 10 0
1 -24 -5 0
1 -28 33 0
1 -29 12 0
1 -4 -25 0
1 -9 18 0
1 -4 -8 0
1 4 -2 0
1 11 -37 0
1 41 11 0
1 44 2 0
1 -14 20 0
1 44 11 0
1 29 -48 0
1 6 47 0
1 48 32 0
1 -18 16 0
1 -27 16 0
1 -18 -46 0
1 -15 25 0
1 35 4 0
1 -2 26 0
1 22 15 0
%
0

